
 102   30
  10   10   10   10   10   10   10   10   10   10   10   10   10   10   10   10   10   10   10   10   10   10   10   10   10   10   10   10   10   10

   0   0   0   0   0   0   0   0   0   0   0   0   0   0   0   0   0   0   0   0   0   0   0   0   0   0   0   0   0   0   0  26 2 3 4 5 6 7 8 10 11 12 13 14 15 17 18 19 20 22 23 25 26 27 32 34 36 37 
   8   0   0   0   1   0   0   0   0   0   0   2   0   2   0   0   0   0   0   0   0   0   0   0   0   0   0   2   0   0   4  13 99 65 52 49 47 45 44 40 35 29 24 16 9 
   6   0   0   0   0   1   0   0   0   0   1   0   0   6   0   0   0   2   0   0   0   0   0   0   0   0   0   0   0   0   0  17 100 99 63 62 61 55 54 52 51 49 47 46 44 43 33 29 21 
  10   0   1   1   0   0   0   0   0   0   0   0   0   0   0   0   0   0   0   0   0   0   0   2   0   0   0   0   3   0   0  16 98 63 57 55 54 53 52 51 46 45 44 40 38 31 29 21 
   6   1   0   0   0   0   0   0   0   4   0   0   0   6   2   0   1   0   0   1   0   0   2   0   0   0   0   0   0   0   0  15 101 97 95 92 71 70 69 64 63 62 61 60 56 30 28 
   3   0   0   0   0   0   0   0   0   0   0   0   0   5   0   0   0   7   0   3   0   0   0   0   0   0   0   0   0   1   0  13 97 71 65 64 62 60 54 47 46 43 41 40 24 
   1   8   5   0   0   0   0   0   0   0   0   0   0   0   6   0   0   0   0   0   0   0   0   0   0   0   0   0   6   0   0   8 98 63 56 55 51 46 21 16 
   1   0   0   0   0   2   0   0   1   0   0   0   0   0   6   0   0   7   0   0   0   0   0   0   0   0   0   0   0   0   0  21 100 99 98 97 96 93 92 91 88 70 65 64 63 60 58 56 55 53 45 40 39 
  10   0   0   9   0   0   0   0   5   8   8   0   0   6   0   0   0   0   0   0   0   0   0   0   0   0   0   0   0   0   0  12 96 90 70 63 62 61 55 54 51 46 41 21 
   3   0   0   0   0   0   0   0   0   0   0   0   1   0   0   0   0   0   0   0   1   0   0   0   0   0   0   0   0   0   0  12 100 98 96 87 71 68 62 57 53 45 44 24 
   5   0   3   0   0   0   0   0   0   5   0   5   0   0   0   1   0   0   0   0   0   0   0   0   0   0   0   0   0   0   0  11 100 99 98 96 87 68 62 58 53 44 24 
   9   0   0   8   0   0   0   0   0   0   0   0   0   0   0   0   0   0   0   0   6   0   4   5   0   0   0   0   0   0   0   7 98 96 70 63 44 39 21 
  10   0   0   0   0   9   0   0   0   0   0   5   5   0   6   0   0   0   0   0   0   0   0   8   0   0   0   0   0   0   9  15 101 93 90 86 82 70 69 65 64 61 53 50 48 45 35 
   9   0   0   0   0   0   0   0   0   0   0   0   7   0   0   0   0   4   0   9   0   0   0   0   0   0   0   0   0   7   0  11 100 97 96 90 83 71 70 63 60 46 21 
   6   0   7   9   0   0   0   0   0   0   0   0   0   0   0   0   9   0   0   0   0   0   0   0   0   0   0   6   0   0   0  17 99 98 97 96 95 93 86 70 56 55 53 52 51 48 45 42 40 
   1   0   0   0   5   9   0   0   0   0   0   0   0   0   0   0   0   0   0   0   0   0   0   0   0   0   0   0   0   0   7  18 101 97 96 95 93 90 86 83 76 70 69 64 62 61 60 53 48 42 
   3   0   0   0   0   0   0   0   0   0   0   0   0   0   0   0   0   0   0   3   0   0   0   0   0   0   0   0   0   0   0  16 98 95 93 92 90 89 86 83 81 70 62 61 46 45 43 40 
   7   0   8   0   0   0   0   0   0   0   0   0   0   0   7   0   7   7   0   0   0   0   5   0   0   0   0   0   0   0   0  18 101 98 96 95 92 90 89 85 83 81 71 69 63 62 61 53 45 44 
   3   0   0   0   0   4   0   0   0   0   0   0   5   0   0   6   0   0   0   0   0   0   7   0   0   0   0   0   0   0   0  16 97 96 95 92 91 90 86 85 65 63 55 54 53 51 45 40 
   9   0   0   0   0   6   0   0   0   0   0  10   0   0   6   0   0   0   1   0   0   0   0   0   0   0   0   0   0   0   0  18 96 95 94 92 91 89 88 87 85 83 82 81 79 69 67 57 45 44 
   4   0   0   0   0   0   0   0   0   5   0  10   0   0   0   0   0   8   0   6   0   0   9   0   0   1   0   0   0   0   0  13 101 95 94 93 86 79 78 76 69 67 64 48 42 
   8   8   0   0   0   0   2   0   0   0   4   0   0   8   0   0   0   0   0   0   0   0   5   0   0   0   0   0   0   0   0  13 97 93 90 87 86 83 81 77 68 61 47 46 45 
   3   0   0   0   0   0   0   0   0   6   0   5   0   0   0   0   0   0   0   0   4   0   0   0   0   0   0   0   0   0   6  21 100 99 98 97 96 93 92 91 90 87 85 83 82 78 77 76 71 66 64 61 59 
   8   0   0   5   7   0   0   1   0   0   0   0   0   0   0   8   0   0   4   0   0   0   0   0   0   0   0   3   0   0   0  18 95 94 93 91 89 86 84 83 82 81 80 78 77 76 69 61 56 48 
   8   0   0   0   0   9   5   0   0   0   0   7   0   0   0   0   0   0   0   0   0   0   4   0   0   0   1   0   0   5   0  13 99 98 96 93 92 89 86 85 68 60 55 54 45 
   3   8   0   0   0   0   0   0   3   0   0   0   6   0   0   0   0   0   0   0   0   0   0   0   0   0   0   0   0   0   0  12 98 96 93 91 90 86 85 81 68 55 54 45 
   8   0   0   0   7   6  10   0   0   0   0   0   0   0   0   0   0   0   0   0   0   0   0   0   0   0   0   0   0   0   0  21 99 97 95 94 93 92 90 86 84 83 82 81 80 78 77 76 68 67 66 61 59 
   3   0   0   0   0   0   0   0   0   0   0   0   0   6   0   0   0   0   0   0   0   0   0   0   0   0   0   0   0   0   0  13 100 94 91 90 89 86 85 80 78 55 54 53 40 
   9   0   0   0   0   0   0   0   0   0   0   3   0   9   0   8   0   0   0   0   0   0   0   0   0   0   0   0   0   0   0  17 97 96 93 89 86 85 83 82 81 80 79 77 71 69 67 60 48 
   8   0   0   0   0   0   6   0   7   0   0   0   0   0   0   0   0   0   0   8   0   0   0   5   0   0   0   0   0   0   0  10 99 96 93 90 88 85 79 53 51 42 
   9   0   8   0   0   0   0   9   0   0   0   0   0   0   0   0   0   0   7   0   0   0   0   0   0   0   7   0   0   0   0  20 100 92 90 89 88 87 86 85 84 83 82 81 80 79 77 73 68 66 60 59 
   5   0   0   0   0   0   0   6   0   0   0   8   0   0   0   0   0   0   0   0   0   0   0   0   0   0   8   0   0   0   0  12 93 92 91 87 86 81 79 69 68 67 54 45 
   7   0   0   0   0   0   0   7   0   0   0   0   0   0   0   0   0   0   0   5   0   0   0   0   0   0   0   0   0   0   3  11 95 94 93 92 88 83 82 81 77 53 45 
   2   0   0   0   0   0   9   0   0   0   0   0   0   7   0   9   0   0   0   0   0   0   0   0   0   0   0   5   0   0   0   9 88 83 77 71 68 66 55 53 46 
   1   0   6   0   0   0   0   0   6   0   0   0   0   0   0   0   0   2   0   0   0   0   0  10   0   0   0   6   6   0   0  10 95 92 85 83 77 68 67 62 59 51 
   4   0   0   0   0   0   0   0   0   0  10   0   0   0   0   6   0   0   0   0   0   0   0   0   0   0   0   0   0   0   0  17 99 97 95 91 90 89 88 86 84 82 81 80 77 76 73 66 59 
   6   0   0   4   0   0   0   0   0   0   0   0   0   0   0   0   0   0   0   0   0   1   0   0   0   0   0   0   0   0   0  17 99 97 94 91 89 88 86 85 84 81 79 78 76 74 73 68 66 
   9   0   0   0   0   0   0  10  10   0   0   0   7   0   0   0   0   0   0   0   0   0   0   0   0   0   0  10   0   0   0  11 99 96 86 83 82 80 79 78 76 59 56 
   4   0   0   0   6   0   0   0   0   0   0   0   6   4   0   0   0   0   0   0   0   0   0   0   0   0   0   0   0   0   0  10 95 90 86 85 80 79 75 68 66 54 
   6   0   0   6   9   0   0   8   0   0   0   8   0   0   0   0   0   0   0   0   0   0   0   0   0   0   0   0   0   0   0   9 87 82 79 77 76 68 67 66 59 
   8   0   0   0   4   0   0   0   0   0   0   0   0   0   0   0   0   0   0   0   0   0   0   0   0   0   0   0   0   0   0  10 100 98 89 79 77 76 74 73 68 66 
   5   0   0   0   0   6   0   0   0   6   0   0   0   0   0   0   8   0   0   0   0   0   0   0   0   0   0   0   0   0   0   8 91 89 87 84 82 80 77 59 
   7   0   0   0   7   0   0   0   0   0   0   0   0   0   0   0   0   0   0   5   9   0   0   0   0   0   0   0   0   0   0   5 88 85 82 66 53 
  10   0   0   0   0   0   0   0   0   0   6   0   0   0   0   0   0   0   0   0   0   0   8   0   0   0   0   0   8   0   4   7 97 86 80 77 73 66 60 
   4   0   0   4   0   0   0   0   0   0   0   0   0   0   0   0   0  10   0   0   0   0   0   0   0   0   0   0   0   0   0   6 84 80 78 76 66 59 
   1   0   0   0   4   0   8   5   0   5   6   0   0   0   9   0   0   0   0   0   4   0   0   0   1   8   9   0   0   0   0   7 85 82 78 76 75 72 69 
   9   0   5   0   0   9   0   0   0   0   0   0   0   0   0   0   0   5   8   0   0   0   0   0   0   0   0   0   0   0   0   7 98 96 78 76 75 73 66 
   8   8   6   0   0   0   0   0   0   0   0   0   8   0   0   0   0   0   0   0   0   0   0   0   0   0   0   0   0   0   0   5 92 88 73 66 59 
   2   0   0   0   0   0   0   4   0   0   0   0   0   0   0   0   0   0   0   0   0   0   0   0   0   0   0   0   0   0   0   7 94 89 88 87 81 75 72 
   3   0   0   0   0   0   0   0   0   0   0   3   0   0   0   0   0   0   0   0   0   0   0   0   0   0   0   0   0   7   0   6 98 81 76 74 73 67 
   5   0   0   0   0   5   0   0   0   0   0   0   0   0   6   0   0   0   8   0   0   0   0   0   0   0   0   0   0   0   0   6 87 81 80 76 73 72 
   4   0   0   0   8   4   0   0   0   0   0   0   0   0   0   3   0   5   0   0   0  10   0   0   0   8   0   0   0   0   0   6 90 89 83 81 73 72 
   2   6   0   0   0   0   3   0   0   0   0   0   0   0   0   0   0   0   0   0   0   0   0   0   0   0   0   0   0   0   0   3 73 67 59 
   7   0   0   0   0   8   0   0   6   0   0   0   0   1   0   0   0   0   0   4   0   0   7   0   0   0   0   0   0   0   0   5 83 77 74 73 72 
   1   0   0   0   0   0   0   0   0   0   0   0   0   0   0   0   0   0   0   0   0   0   0   0   0   0   0   0   0   0   0   4 87 82 79 67 
  10   0   0   7   0   0   0   0   0   0   0   0  10   0   0   0   0   0   0   0   0   0   6   0   0   0   6   0   0   0   0   4 90 85 73 66 
  10   0   0   8   0   0   0   0   0   0   0   0   0   0   0   0   0   0   0   0   0   8   0   0   8   0   0   0   0   0   8   4 78 75 74 72 
   7   0   7   0   0   0   0   0   0   0   0  10   0   6   0   0   0   6   0   0   0   6   0   0   0   0   0   0   0   0   0   4 94 84 76 74 
   1   0   0   0   0   0   0   0   0   0   0   0   0   0   0   0   0   0   0   0   0   0   0   6   0   0   0   0   0   0   0   3 75 74 72 
   1   0   0   6   0   0   0   0   0   0   0   0   0   0   7   0   0   0   7   0   0   4   0   0   0   0   0   0   0   0   0   3 78 74 72 
   7   0   0   0   0   0   0   0   0   0   0   5   0   0   0   0   0   0   4   0   0   0   0   3   0   0   0   0   0   0   0   3 88 79 73 
   3   0   7   0   0   0   5   0   6   0   0   0   0   0   0   0   0   8   0   0   4  10   0   0   0   0   0   0   0   0   0   3 94 91 84 
  10   0   0   0   0   0   0   7   0   0   0   0   7   8   0   0   0   0   0   0   0   0   0   0   0   0   0   0   0   0   9   3 79 78 72 
   2   0   0   0   0   0   5   0   5   0   0   0   0   0   0   0   0   0   0   0  10   0   0   0   0   0   0   0   8   0   0   2 81 68 
   4   0   0   0   0   0   0   5   0   0   0   0   0   0   0   0   0   0   0   0   0   4   5   0   0   0   0   0   0   0   1   2 89 72 
  10   0   0   0   5   0   0   0   0   0   0   0   0   0   0   0   0   0   0   0   0   0   0   0   0   0   0   0   0   0   0   1 72 
   2   0   0   0   0   0   0   0   0   0   0   0   0   7   0   0   0   0   0   0   0   0   0   0   0   0   0   0  10   0   0   1 72 
   6   0   0   0   0   0   0   0   0   8   0   7   0   0   0   0   7   0   0   0   0   0   0   7   0   0   4   0   0   0   0   1 72 
   6   0   3   0   0   4   0   0   0   0   7   0   0   0   0   0   0   0   0   0   0   0   0   0   0   0   9   0   0   0   0   1 73 
   3   0   0   0   8   0   5   0   0   5   0   6   0   0   0   0   0   0   0   6  10   6   0   0   8   0   5   0   0   9  10   1 72 
  10   0   5   0   0   0   0   6   0   0   0   0   0   0   0   0   0   0   0   0   0   0   0   0   0   0   0   0   4   0   4   1 72 
   3   0   0   0   5   0   0   0   0   0   0   0   0   5   0   0   0   0   0   0   0   0   0   0   0   0   0   0   0   0   5   1 102
   6   0   7   5   0   0   0   3   0   0   0   0   0   0   0   0   0   0   0   0   0   0   0   0   0   0   0   0   3   0   0   1 102
  10   7   0   0   9   4   0   0   0   0   0   0   0   0   0   0   0   7   0   0   0   0   0   0   0   0   0   0   0   4   0   1 102
   4   0   0   0   0   0   0   0   0   0   0   0   0   0   0   0   0   0   0   0   0   0   0   4   0   0   0   0   0   0   0   1 102
   7   0   9   0   0   0   6   0   0   0   0   0   0   0   0   0   0   0   7  10   0   0   0   0   0   0   0   0   0   0   7   1 102
   3   0  10   0   0   0   0   0   0   0   0   0   0   0   8   4   7   0   0   0   0   0   0   6   0   6   0   0   0   0   0   1 102
   1   0   0   0   0   3   0   0   9   0   0   0   0   0   0   0   0   0   0   0   0   0   0   0   0   0   0   0   0   0   0   1 102
   1   0   0   0   0   0   0   7   0   3   0   0   0   0   0   0   0   7   0   0   0   0   0   0   0   0   0   0   0   0   0   1 102
   7   0   0   0   0   0   0   0   0   0   0   0   6   0   3   0   0   0   0   0   0   0   0   0   0   0   0   0   0   0   0   1 102
   8   0   0   0   4   0   0   0   5   6   0   0   0   0   0   0   0   0   0   0   0   0   0   0   0   0   6   0   0   0   0   1 102
   8   0   0   0   0   0   0   8   0   0   0   0   0   0   6   0   0   0   4   0   0   0   0   0   0   0   0   8   0   0   0   1 102
   5   0   7   0   9   0   0   0   0   0   0   0   5  10   0   0   0   0   7   0   0   4   4   0   0   0   0   0   0   0   6   1 102
   3   0   0   0   6   0   0   0   0   0   0   0   0   0   0   0   0   0   0   0   0   7   0   0   0   0   0   0   0   0   0   1 102
   7   5   0   0   0   7   0   0   0   0   0   0   0   0   0   0   6   0   0   0   0   0   0   0   0   9   0   0   0   0   0   1 102
   2   0   9   3   0   0   0   0   0   7   0   0   0   0   0   0   0   0   0   0   6   0   8   0   0   0   0   0   0   8   0   1 102
   4   0   0   0   4   9   6   0   0   0   0   0   3   8   0   6   0   0   0   0   0   0   3   0   0   0   0   0   0   0   0   1 102
  10   0   3   0   0   6   0   0   0   0   0   0   0   0   0   0   0   0   0   0   0   0   0   0   0   0   0   0   0   0   0   1 102
   7   7   0   0   0   0   0   0   0   0   0   0   0   0   4   0   0   0   5   0   0   0   0  10   0   0   0   0   0   0   7   1 102
   1   0   0   0   0   0   0   4   0   0   0   0   0   0   0   9   0   0   0   8   0   0   0   0   0   0   0   0   0   0   0   1 102
   5   4   0   0   0   9   0   0   0   6   0   0   0   0   7   0   0   0   0  10   0   0   0   0   0   0   5   0   0   0   0   1 102
   1   0   0   0   0   0   0   0   0   0   0   0   0   0  10   0   0   6   0   0   0   0   0   0   0   0   0   0   0   0   0   1 102
   5   0   0   9   0   0   0   0   8  10   0   5   5   0   0   0   0   0   0   0   0   0   0   0   0   4   0   0   0   0   0   1 102
  10   0   0   0   0   0   0   0   7   0   0   0   0   0   2   0   0   0   0   0   0   0   0   0   0   6   0   5   0   0   0   1 102
  10   0   0   0   0   0   0   0   0   0   0   0   0   0   0   0   0   0   7   0   0   0  10   0   0   0   0   0   0   0   0   1 102
   5   0   0   0   0   0   0   0   0   0   0   3   9   4   8   0   0   0   0   6   0   0   0   6   5   0   0   0   0   0   0   1 102
   9   0   4   0   0   0   0   0   0   0   0   0   0   0   5   0   0   0   0   0   0   0   0   0   0   0   0   0   6   0   0   1 102
   5   0   0   0   0   0   0   0   0   0   0   0   0   0   0   0   0   5   9   0   0   0   0   0   8   0   0   0   0   0   0   1 102
   3   7   0   0   7   0   0   0   0   0   0   0   0   0   0   0   0   0   0   6   0   0   0   0   0   8   0   0   0   7   0   1 102
   3   3   0   0   0   0   8   0   0   0   0   0   0   0   0   0   3   0   0   0   0   0   9   0   0   4   0   0   0   0   0   1 102
   9   0   0   0   5   0   0   0   0   0   0   0   0   0   0   0   0   0   0   0   0   0   0   0   0   0   0   9   0   0   0   1 102
   0   0   0   0   0   0   0   0   0   0   0   0   0   0   0   0   0   0   0   0   0   0   0   0   0   0   0   0   0   0   0   0 
